Route #1: 38 10 31 39 3 23 43 41 42 1 
Route #2: 26 7 35 14 19 54 13 46 
Route #3: 6 2 28 22 33 51 
Route #4: 40 9 25 18 50 32 17 
Route #5: 8 53 11 12 44 24 49 16 
Route #6: 30 21 36 47 48 4 
Route #7: 34 52 27 15 20 37 5 29 45 
cost 669.539
